SATISFIABLE
 State 0:
 State 1:
  move(g,-3)
 State 2:
  move(b,3)
 State 3:
  move(a,1)
 State 4:
  move(c,-1)
 State 5:
  move(f,-1)
 State 6:
  move(h,-2)
 State 7:
  move(e,2)
 State 8:
  move(d,3)
